s td 68 12 80
b 1 1 4 6
b 2 2 3 5
b 3 3 5 63
b 4 4 6 64
b 5 5 45 63
b 6 6 46 64
b 7 33 36 38
b 8 34 35 37
b 9 35 37 79
b 10 36 38 80
b 11 29 37 79
b 12 30 38 80
b 13 49 52 54
b 14 50 51 53
b 15 47 51 53
b 16 48 52 54
b 17 31 47 53
b 18 32 48 54
b 19 65 68 70
b 20 66 67 69
b 21 67 69 77
b 22 68 70 78
b 23 59 69 77
b 24 60 70 78
b 25 7 8 15 16 17 18 21 22 44
b 26 15 16 17 18 21 22 43 44 47 48 59 60
b 27 15 16 17 18 19 21 22 43
b 28 9 15 18 19 22
b 29 10 16 17 19 22
b 30 13 16 18 19 21
b 31 14 15 17 19 21
b 32 15 16 21 22 47 48 59 60 78
b 33 15 16 21 22 47 48 59 77 78
b 34 15 16 21 22 47 48 76 77 78
b 35 15 21 22 47 48 75 76 77 78
b 36 21 22 32 47 48 75 76 77 78
b 37 21 22 31 32 47 75 76 77 78
b 38 21 22 28 31 32 75 76 77 78
b 39 21 27 28 31 32 75 76 77 78
b 40 27 28 31 32 75 76 77 78 80
b 41 25 27 28 31 32 80
b 42 23 25 28 32 80
b 43 23 25 30 80
b 44 71 76 78 80
b 45 72 75 77 80
b 46 27 28 31 32 75 76 77 78 79
b 47 26 27 28 31 32 79
b 48 26 27 29 32 79
b 49 24 27 29 32
b 50 73 75 78 79
b 51 74 76 77 79
b 52 17 18 43 44 47 48 59 60 62
b 53 17 43 44 47 48 59 60 61 62
b 54 43 44 47 48 56 59 60 61 62
b 55 41 43 44 47 48 56 60 62
b 56 39 41 44 48 56 60 62
b 57 39 41 46 56 60 62
b 58 46 56 60 62 64
b 59 55 60 62 64
b 60 40 43 44 47 48 59 60 61 62
b 61 40 42 44 47 59 60 61 62
b 62 40 42 45 59 60 61 62
b 63 45 57 59 60 61 62
b 64 45 57 58 60 61
b 65 45 57 58 63
b 66 7 8 12 15 16 17 18 21 44
b 67 7 8 12 15 18 20 21 44
b 68 11 15 18 20 21
1 4
2 3
3 5
4 6
5 65
6 58
7 10
8 9
9 11
10 12
11 48
12 43
13 16
14 15
15 17
16 18
17 37
18 36
19 22
20 21
21 23
22 24
23 33
24 32
25 26
25 66
26 27
26 32
26 52
27 28
27 29
27 30
27 31
32 33
33 34
34 35
35 36
36 37
37 38
38 39
39 40
39 46
40 41
40 44
40 45
41 42
42 43
46 47
46 50
46 51
47 48
48 49
52 53
53 54
53 60
54 55
55 56
56 57
57 58
58 59
60 61
61 62
62 63
63 64
64 65
66 67
67 68
